2933.31
0 1 2 3 4 10 14 17 0
0 7 9 11 13 15 16 18 19 21 23 27 28 30 32 74 71 22 0
0 25 29 31 33 35 36 37 38 42 44 50 66 64 63 62 0
0 24 26 58 67 73 72 0
0 39 41 59 60 61 65 40 0
0 75 8 5 6 57 69 34 0
0 54 56 46 45 52 43 0
0 68 70 20 12 0
0 53 49 48 51 55 47 0
